63
1 0 1
2 0 3
2 1 1
3 0 3
3 1 3
3 2 3
4 0 3
4 1 2
4 2 2
4 3 4
5 0 3
5 1 1
5 2 4
5 3 2
5 4 2
6 0 3
6 1 2
6 2 1
6 3 3
6 4 2
6 5 2
7 0 1
7 1 2
7 2 2
7 3 3
7 4 1
7 5 2
7 6 2
8 0 1
8 1 2
8 2 3
8 3 3
8 4 4
8 5 2
8 6 2
8 7 3
9 0 1
9 1 2
9 2 3
9 3 1
9 4 4
9 5 3
9 6 2
9 7 3
9 8 3
10 0 3
10 1 1
10 2 4
10 3 3
10 4 4
10 5 2
10 6 3
10 7 3
10 8 1
10 9 2
11 0 4
11 1 3
11 2 3
11 3 4
11 4 1
11 5 1
11 6 1
11 7 1
11 8 1
11 9 2
11 10 1
12 0 3
12 1 4
12 2 1
12 3 4
12 4 3
12 5 4
12 6 4
12 7 1
12 8 2
12 9 3
12 10 2
12 11 2
13 0 4
13 1 3
13 2 3
13 3 2
13 4 3
13 5 3
13 6 4
13 7 2
13 8 1
13 9 3
13 10 4
13 11 4
13 12 2
14 0 1
14 1 2
14 2 4
14 3 1
14 4 2
14 5 2
14 6 3
14 7 2
14 8 2
14 9 3
14 10 2
14 11 2
14 12 3
14 13 2
15 0 4
15 1 4
15 2 3
15 3 3
15 4 4
15 5 4
15 6 3
15 7 3
15 8 2
15 9 2
15 10 3
15 11 2
15 12 2
15 13 2
15 14 2
16 0 4
16 1 2
16 2 3
16 3 1
16 4 3
16 5 2
16 6 3
16 7 3
16 8 4
16 9 1
16 10 4
16 11 1
16 12 4
16 13 2
16 14 1
16 15 4
17 0 2
17 1 4
17 2 4
17 3 4
17 4 1
17 5 2
17 6 4
17 7 3
17 8 1
17 9 3
17 10 3
17 11 2
17 12 1
17 13 1
17 14 3
17 15 4
17 16 2
18 0 4
18 1 1
18 2 4
18 3 1
18 4 3
18 5 3
18 6 3
18 7 4
18 8 2
18 9 2
18 10 3
18 11 3
18 12 3
18 13 3
18 14 3
18 15 3
18 16 2
18 17 3
19 0 3
19 1 4
19 2 1
19 3 2
19 4 3
19 5 2
19 6 3
19 7 2
19 8 1
19 9 1
19 10 1
19 11 1
19 12 3
19 13 4
19 14 2
19 15 4
19 16 2
19 17 2
19 18 4
20 0 1
20 1 1
20 2 3
20 3 2
20 4 4
20 5 2
20 6 3
20 7 3
20 8 2
20 9 4
20 10 1
20 11 3
20 12 2
20 13 2
20 14 4
20 15 3
20 16 4
20 17 4
20 18 2
20 19 3
21 0 2
21 1 3
21 2 3
21 3 1
21 4 4
21 5 2
21 6 2
21 7 1
21 8 3
21 9 3
21 10 4
21 11 2
21 12 3
21 13 2
21 14 2
21 15 4
21 16 1
21 17 1
21 18 1
21 19 3
21 20 3
22 0 1
22 1 1
22 2 2
22 3 3
22 4 3
22 5 4
22 6 4
22 7 4
22 8 2
22 9 2
22 10 3
22 11 1
22 12 3
22 13 1
22 14 4
22 15 2
22 16 3
22 17 3
22 18 3
22 19 4
22 20 4
22 21 2
23 0 4
23 1 3
23 2 3
23 3 4
23 4 3
23 5 3
23 6 4
23 7 3
23 8 4
23 9 3
23 10 1
23 11 1
23 12 3
23 13 1
23 14 2
23 15 1
23 16 3
23 17 2
23 18 1
23 19 2
23 20 1
23 21 3
23 22 3
24 0 1
24 1 1
24 2 1
24 3 3
24 4 3
24 5 1
24 6 1
24 7 3
24 8 2
24 9 4
24 10 3
24 11 4
24 12 3
24 13 4
24 14 1
24 15 3
24 16 4
24 17 4
24 18 4
24 19 4
24 20 3
24 21 2
24 22 2
24 23 4
25 0 2
25 1 3
25 2 3
25 3 1
25 4 4
25 5 1
25 6 4
25 7 3
25 8 2
25 9 3
25 10 2
25 11 2
25 12 4
25 13 4
25 14 4
25 15 1
25 16 1
25 17 2
25 18 3
25 19 3
25 20 3
25 21 2
25 22 2
25 23 4
25 24 3
26 0 2
26 1 1
26 2 1
26 3 1
26 4 1
26 5 1
26 6 2
26 7 3
26 8 4
26 9 3
26 10 1
26 11 4
26 12 1
26 13 2
26 14 2
26 15 2
26 16 3
26 17 1
26 18 4
26 19 4
26 20 4
26 21 4
26 22 1
26 23 1
26 24 2
26 25 4
27 0 1
27 1 4
27 2 4
27 3 4
27 4 2
27 5 4
27 6 2
27 7 3
27 8 3
27 9 1
27 10 2
27 11 1
27 12 4
27 13 3
27 14 3
27 15 1
27 16 2
27 17 2
27 18 3
27 19 4
27 20 4
27 21 3
27 22 3
27 23 3
27 24 3
27 25 3
27 26 2
28 0 1
28 1 2
28 2 1
28 3 1
28 4 2
28 5 3
28 6 4
28 7 4
28 8 4
28 9 2
28 10 3
28 11 2
28 12 1
28 13 4
28 14 4
28 15 1
28 16 2
28 17 2
28 18 2
28 19 2
28 20 3
28 21 1
28 22 4
28 23 4
28 24 2
28 25 2
28 26 1
28 27 1
29 0 2
29 1 4
29 2 4
29 3 3
29 4 1
29 5 1
29 6 2
29 7 1
29 8 2
29 9 2
29 10 1
29 11 1
29 12 2
29 13 3
29 14 4
29 15 1
29 16 4
29 17 3
29 18 2
29 19 2
29 20 3
29 21 4
29 22 4
29 23 4
29 24 1
29 25 4
29 26 1
29 27 2
29 28 2
30 0 1
30 1 1
30 2 4
30 3 3
30 4 2
30 5 2
30 6 4
30 7 4
30 8 4
30 9 4
30 10 4
30 11 3
30 12 2
30 13 4
30 14 3
30 15 2
30 16 3
30 17 2
30 18 2
30 19 2
30 20 1
30 21 2
30 22 4
30 23 1
30 24 2
30 25 1
30 26 3
30 27 4
30 28 2
30 29 2
31 0 1
31 1 3
31 2 2
31 3 1
31 4 1
31 5 3
31 6 2
31 7 4
31 8 2
31 9 1
31 10 4
31 11 1
31 12 3
31 13 1
31 14 1
31 15 1
31 16 3
31 17 4
31 18 4
31 19 3
31 20 1
31 21 2
31 22 1
31 23 2
31 24 3
31 25 3
31 26 3
31 27 3
31 28 4
31 29 3
31 30 1
32 0 1
32 1 3
32 2 3
32 3 2
32 4 1
32 5 1
32 6 4
32 7 1
32 8 2
32 9 3
32 10 1
32 11 1
32 12 2
32 13 1
32 14 2
32 15 3
32 16 1
32 17 2
32 18 4
32 19 1
32 20 4
32 21 2
32 22 1
32 23 4
32 24 4
32 25 4
32 26 4
32 27 4
32 28 1
32 29 3
32 30 2
32 31 3
33 0 1
33 1 2
33 2 1
33 3 2
33 4 4
33 5 4
33 6 2
33 7 3
33 8 1
33 9 3
33 10 4
33 11 1
33 12 3
33 13 3
33 14 3
33 15 2
33 16 4
33 17 1
33 18 2
33 19 4
33 20 1
33 21 2
33 22 1
33 23 3
33 24 4
33 25 1
33 26 2
33 27 3
33 28 3
33 29 4
33 30 2
33 31 4
33 32 1
34 0 1
34 1 1
34 2 4
34 3 1
34 4 4
34 5 4
34 6 2
34 7 2
34 8 3
34 9 3
34 10 3
34 11 2
34 12 1
34 13 4
34 14 4
34 15 1
34 16 4
34 17 4
34 18 2
34 19 2
34 20 3
34 21 3
34 22 2
34 23 2
34 24 3
34 25 4
34 26 3
34 27 1
34 28 3
34 29 3
34 30 3
34 31 2
34 32 4
34 33 3
35 0 4
35 1 2
35 2 4
35 3 2
35 4 3
35 5 3
35 6 2
35 7 3
35 8 3
35 9 4
35 10 1
35 11 4
35 12 1
35 13 2
35 14 2
35 15 1
35 16 1
35 17 2
35 18 4
35 19 3
35 20 2
35 21 3
35 22 1
35 23 1
35 24 3
35 25 2
35 26 4
35 27 1
35 28 1
35 29 3
35 30 3
35 31 1
35 32 2
35 33 4
35 34 1
36 0 1
36 1 4
36 2 2
36 3 2
36 4 2
36 5 4
36 6 1
36 7 3
36 8 3
36 9 2
36 10 3
36 11 1
36 12 3
36 13 1
36 14 4
36 15 3
36 16 2
36 17 4
36 18 2
36 19 3
36 20 3
36 21 2
36 22 3
36 23 3
36 24 4
36 25 2
36 26 1
36 27 1
36 28 3
36 29 4
36 30 1
36 31 2
36 32 1
36 33 2
36 34 3
36 35 1
37 0 1
37 1 1
37 2 2
37 3 3
37 4 2
37 5 1
37 6 3
37 7 3
37 8 3
37 9 4
37 10 3
37 11 2
37 12 3
37 13 2
37 14 1
37 15 2
37 16 3
37 17 3
37 18 3
37 19 2
37 20 1
37 21 3
37 22 1
37 23 1
37 24 2
37 25 4
37 26 2
37 27 1
37 28 2
37 29 4
37 30 1
37 31 4
37 32 3
37 33 2
37 34 3
37 35 2
37 36 3
38 0 1
38 1 2
38 2 4
38 3 4
38 4 1
38 5 2
38 6 1
38 7 3
38 8 4
38 9 1
38 10 4
38 11 2
38 12 3
38 13 3
38 14 3
38 15 4
38 16 2
38 17 4
38 18 2
38 19 1
38 20 3
38 21 2
38 22 3
38 23 1
38 24 2
38 25 4
38 26 1
38 27 4
38 28 1
38 29 4
38 30 3
38 31 4
38 32 3
38 33 1
38 34 3
38 35 2
38 36 1
38 37 2
39 0 4
39 1 3
39 2 1
39 3 1
39 4 2
39 5 4
39 6 4
39 7 2
39 8 2
39 9 2
39 10 4
39 11 4
39 12 1
39 13 4
39 14 1
39 15 3
39 16 1
39 17 1
39 18 3
39 19 1
39 20 2
39 21 3
39 22 4
39 23 1
39 24 3
39 25 3
39 26 3
39 27 2
39 28 4
39 29 3
39 30 4
39 31 3
39 32 3
39 33 1
39 34 4
39 35 1
39 36 1
39 37 2
39 38 1
40 0 3
40 1 4
40 2 4
40 3 4
40 4 2
40 5 4
40 6 4
40 7 3
40 8 3
40 9 4
40 10 1
40 11 4
40 12 4
40 13 2
40 14 4
40 15 1
40 16 1
40 17 2
40 18 2
40 19 3
40 20 2
40 21 3
40 22 3
40 23 2
40 24 3
40 25 3
40 26 1
40 27 3
40 28 4
40 29 1
40 30 4
40 31 3
40 32 2
40 33 4
40 34 2
40 35 4
40 36 1
40 37 1
40 38 1
40 39 2
41 0 1
41 1 4
41 2 2
41 3 3
41 4 3
41 5 2
41 6 1
41 7 3
41 8 2
41 9 2
41 10 3
41 11 2
41 12 3
41 13 1
41 14 1
41 15 2
41 16 4
41 17 3
41 18 3
41 19 1
41 20 3
41 21 3
41 22 4
41 23 3
41 24 3
41 25 1
41 26 3
41 27 1
41 28 3
41 29 3
41 30 3
41 31 3
41 32 4
41 33 3
41 34 3
41 35 4
41 36 2
41 37 3
41 38 3
41 39 1
41 40 3
42 0 2
42 1 3
42 2 4
42 3 2
42 4 1
42 5 1
42 6 4
42 7 3
42 8 1
42 9 2
42 10 3
42 11 1
42 12 3
42 13 3
42 14 3
42 15 3
42 16 1
42 17 3
42 18 4
42 19 1
42 20 4
42 21 3
42 22 3
42 23 1
42 24 2
42 25 2
42 26 2
42 27 1
42 28 2
42 29 4
42 30 4
42 31 2
42 32 1
42 33 2
42 34 1
42 35 4
42 36 2
42 37 3
42 38 1
42 39 3
42 40 1
42 41 3
43 0 4
43 1 1
43 2 3
43 3 4
43 4 1
43 5 3
43 6 1
43 7 4
43 8 2
43 9 2
43 10 4
43 11 2
43 12 4
43 13 1
43 14 2
43 15 4
43 16 1
43 17 4
43 18 1
43 19 4
43 20 4
43 21 1
43 22 1
43 23 3
43 24 3
43 25 2
43 26 3
43 27 4
43 28 1
43 29 3
43 30 1
43 31 3
43 32 3
43 33 1
43 34 2
43 35 4
43 36 2
43 37 3
43 38 1
43 39 1
43 40 2
43 41 1
43 42 4
44 0 4
44 1 3
44 2 1
44 3 2
44 4 4
44 5 1
44 6 2
44 7 4
44 8 3
44 9 1
44 10 3
44 11 2
44 12 1
44 13 3
44 14 4
44 15 2
44 16 4
44 17 4
44 18 4
44 19 4
44 20 1
44 21 2
44 22 4
44 23 2
44 24 3
44 25 2
44 26 1
44 27 4
44 28 2
44 29 3
44 30 2
44 31 2
44 32 2
44 33 1
44 34 3
44 35 2
44 36 3
44 37 4
44 38 4
44 39 1
44 40 1
44 41 3
44 42 1
44 43 2
45 0 4
45 1 1
45 2 2
45 3 4
45 4 2
45 5 2
45 6 2
45 7 1
45 8 2
45 9 2
45 10 4
45 11 4
45 12 3
45 13 1
45 14 3
45 15 3
45 16 1
45 17 4
45 18 2
45 19 2
45 20 2
45 21 1
45 22 1
45 23 4
45 24 4
45 25 4
45 26 2
45 27 1
45 28 2
45 29 3
45 30 3
45 31 2
45 32 2
45 33 2
45 34 3
45 35 2
45 36 1
45 37 1
45 38 2
45 39 3
45 40 3
45 41 1
45 42 4
45 43 2
45 44 3
46 0 1
46 1 2
46 2 1
46 3 4
46 4 4
46 5 1
46 6 1
46 7 1
46 8 3
46 9 3
46 10 3
46 11 3
46 12 3
46 13 2
46 14 1
46 15 1
46 16 4
46 17 3
46 18 2
46 19 4
46 20 1
46 21 3
46 22 4
46 23 4
46 24 2
46 25 1
46 26 4
46 27 3
46 28 3
46 29 1
46 30 3
46 31 3
46 32 3
46 33 3
46 34 3
46 35 2
46 36 1
46 37 1
46 38 1
46 39 3
46 40 3
46 41 4
46 42 1
46 43 1
46 44 2
46 45 2
47 0 4
47 1 3
47 2 4
47 3 3
47 4 3
47 5 2
47 6 3
47 7 4
47 8 4
47 9 2
47 10 4
47 11 3
47 12 3
47 13 2
47 14 1
47 15 1
47 16 2
47 17 2
47 18 1
47 19 2
47 20 4
47 21 2
47 22 1
47 23 1
47 24 2
47 25 2
47 26 2
47 27 1
47 28 4
47 29 3
47 30 4
47 31 4
47 32 2
47 33 1
47 34 2
47 35 1
47 36 3
47 37 3
47 38 3
47 39 4
47 40 3
47 41 2
47 42 1
47 43 4
47 44 4
47 45 3
47 46 4
48 0 4
48 1 1
48 2 1
48 3 3
48 4 3
48 5 4
48 6 4
48 7 3
48 8 2
48 9 1
48 10 3
48 11 1
48 12 4
48 13 4
48 14 1
48 15 4
48 16 3
48 17 4
48 18 3
48 19 4
48 20 3
48 21 4
48 22 3
48 23 3
48 24 4
48 25 1
48 26 4
48 27 2
48 28 3
48 29 2
48 30 3
48 31 1
48 32 4
48 33 3
48 34 4
48 35 1
48 36 2
48 37 2
48 38 2
48 39 2
48 40 4
48 41 2
48 42 4
48 43 4
48 44 3
48 45 2
48 46 1
48 47 4
49 0 1
49 1 3
49 2 2
49 3 2
49 4 4
49 5 2
49 6 4
49 7 2
49 8 2
49 9 3
49 10 3
49 11 2
49 12 2
49 13 1
49 14 1
49 15 1
49 16 4
49 17 4
49 18 3
49 19 2
49 20 4
49 21 1
49 22 2
49 23 2
49 24 4
49 25 2
49 26 3
49 27 1
49 28 2
49 29 4
49 30 1
49 31 3
49 32 3
49 33 3
49 34 4
49 35 3
49 36 4
49 37 1
49 38 2
49 39 1
49 40 1
49 41 4
49 42 3
49 43 4
49 44 3
49 45 3
49 46 4
49 47 4
49 48 4
50 0 4
50 1 2
50 2 2
50 3 1
50 4 4
50 5 4
50 6 1
50 7 1
50 8 4
50 9 3
50 10 1
50 11 3
50 12 3
50 13 2
50 14 3
50 15 4
50 16 1
50 17 4
50 18 4
50 19 1
50 20 3
50 21 2
50 22 1
50 23 1
50 24 1
50 25 2
50 26 1
50 27 3
50 28 4
50 29 1
50 30 1
50 31 3
50 32 2
50 33 1
50 34 3
50 35 1
50 36 3
50 37 4
50 38 2
50 39 4
50 40 1
50 41 3
50 42 3
50 43 1
50 44 4
50 45 2
50 46 3
50 47 1
50 48 1
50 49 2
51 0 3
51 1 4
51 2 1
51 3 1
51 4 1
51 5 4
51 6 1
51 7 4
51 8 3
51 9 2
51 10 3
51 11 1
51 12 4
51 13 1
51 14 2
51 15 3
51 16 2
51 17 3
51 18 1
51 19 1
51 20 3
51 21 3
51 22 4
51 23 2
51 24 4
51 25 3
51 26 1
51 27 1
51 28 2
51 29 3
51 30 2
51 31 4
51 32 1
51 33 1
51 34 1
51 35 4
51 36 1
51 37 1
51 38 4
51 39 1
51 40 2
51 41 3
51 42 3
51 43 3
51 44 2
51 45 4
51 46 3
51 47 3
51 48 3
51 49 4
51 50 1
52 0 3
52 1 3
52 2 4
52 3 4
52 4 2
52 5 2
52 6 3
52 7 2
52 8 2
52 9 2
52 10 3
52 11 4
52 12 4
52 13 1
52 14 1
52 15 4
52 16 3
52 17 3
52 18 4
52 19 4
52 20 2
52 21 3
52 22 3
52 23 4
52 24 4
52 25 1
52 26 2
52 27 4
52 28 3
52 29 3
52 30 3
52 31 2
52 32 3
52 33 4
52 34 1
52 35 3
52 36 1
52 37 3
52 38 4
52 39 1
52 40 4
52 41 4
52 42 2
52 43 1
52 44 2
52 45 3
52 46 4
52 47 4
52 48 2
52 49 3
52 50 1
52 51 3
53 0 3
53 1 4
53 2 1
53 3 2
53 4 4
53 5 4
53 6 4
53 7 3
53 8 2
53 9 1
53 10 3
53 11 2
53 12 1
53 13 1
53 14 2
53 15 4
53 16 3
53 17 2
53 18 1
53 19 4
53 20 4
53 21 1
53 22 4
53 23 4
53 24 4
53 25 3
53 26 3
53 27 2
53 28 1
53 29 4
53 30 4
53 31 4
53 32 2
53 33 2
53 34 3
53 35 1
53 36 4
53 37 1
53 38 2
53 39 2
53 40 2
53 41 2
53 42 4
53 43 3
53 44 4
53 45 3
53 46 3
53 47 3
53 48 3
53 49 4
53 50 4
53 51 3
53 52 4
54 0 4
54 1 4
54 2 1
54 3 4
54 4 1
54 5 3
54 6 4
54 7 2
54 8 4
54 9 2
54 10 3
54 11 1
54 12 2
54 13 2
54 14 3
54 15 4
54 16 3
54 17 4
54 18 1
54 19 1
54 20 1
54 21 1
54 22 4
54 23 1
54 24 2
54 25 1
54 26 3
54 27 3
54 28 1
54 29 1
54 30 4
54 31 3
54 32 4
54 33 2
54 34 1
54 35 1
54 36 2
54 37 1
54 38 3
54 39 1
54 40 3
54 41 2
54 42 1
54 43 2
54 44 4
54 45 4
54 46 2
54 47 3
54 48 3
54 49 4
54 50 3
54 51 1
54 52 1
54 53 4
55 0 4
55 1 4
55 2 1
55 3 4
55 4 3
55 5 2
55 6 2
55 7 1
55 8 1
55 9 4
55 10 2
55 11 4
55 12 4
55 13 2
55 14 1
55 15 1
55 16 1
55 17 4
55 18 4
55 19 3
55 20 4
55 21 3
55 22 3
55 23 4
55 24 3
55 25 3
55 26 3
55 27 1
55 28 4
55 29 2
55 30 2
55 31 2
55 32 1
55 33 3
55 34 4
55 35 4
55 36 4
55 37 4
55 38 2
55 39 3
55 40 4
55 41 3
55 42 4
55 43 4
55 44 1
55 45 2
55 46 1
55 47 3
55 48 3
55 49 1
55 50 1
55 51 1
55 52 4
55 53 4
55 54 1
56 0 3
56 1 2
56 2 2
56 3 4
56 4 3
56 5 3
56 6 1
56 7 1
56 8 2
56 9 4
56 10 3
56 11 4
56 12 4
56 13 4
56 14 1
56 15 4
56 16 2
56 17 1
56 18 2
56 19 4
56 20 4
56 21 2
56 22 3
56 23 1
56 24 1
56 25 1
56 26 2
56 27 2
56 28 4
56 29 3
56 30 2
56 31 1
56 32 4
56 33 3
56 34 1
56 35 4
56 36 2
56 37 1
56 38 2
56 39 4
56 40 4
56 41 4
56 42 4
56 43 4
56 44 4
56 45 1
56 46 3
56 47 2
56 48 2
56 49 3
56 50 4
56 51 1
56 52 1
56 53 3
56 54 2
56 55 4
57 0 1
57 1 1
57 2 2
57 3 2
57 4 3
57 5 1
57 6 1
57 7 4
57 8 3
57 9 4
57 10 1
57 11 1
57 12 4
57 13 4
57 14 3
57 15 2
57 16 4
57 17 3
57 18 3
57 19 1
57 20 3
57 21 1
57 22 2
57 23 2
57 24 2
57 25 3
57 26 2
57 27 4
57 28 2
57 29 3
57 30 3
57 31 2
57 32 1
57 33 3
57 34 3
57 35 2
57 36 4
57 37 3
57 38 4
57 39 1
57 40 1
57 41 2
57 42 1
57 43 2
57 44 4
57 45 4
57 46 3
57 47 4
57 48 4
57 49 4
57 50 1
57 51 4
57 52 4
57 53 2
57 54 3
57 55 1
57 56 3
58 0 3
58 1 3
58 2 1
58 3 4
58 4 1
58 5 4
58 6 3
58 7 4
58 8 4
58 9 3
58 10 3
58 11 2
58 12 3
58 13 2
58 14 1
58 15 4
58 16 2
58 17 4
58 18 3
58 19 2
58 20 3
58 21 1
58 22 2
58 23 2
58 24 3
58 25 3
58 26 3
58 27 2
58 28 2
58 29 3
58 30 3
58 31 2
58 32 2
58 33 2
58 34 4
58 35 3
58 36 1
58 37 3
58 38 2
58 39 3
58 40 2
58 41 2
58 42 4
58 43 3
58 44 3
58 45 2
58 46 4
58 47 4
58 48 1
58 49 2
58 50 2
58 51 3
58 52 2
58 53 3
58 54 4
58 55 2
58 56 3
58 57 2
59 0 3
59 1 3
59 2 1
59 3 3
59 4 3
59 5 3
59 6 4
59 7 3
59 8 1
59 9 3
59 10 1
59 11 3
59 12 3
59 13 4
59 14 1
59 15 1
59 16 2
59 17 4
59 18 2
59 19 1
59 20 3
59 21 3
59 22 2
59 23 3
59 24 2
59 25 3
59 26 1
59 27 2
59 28 2
59 29 2
59 30 4
59 31 2
59 32 4
59 33 1
59 34 2
59 35 1
59 36 4
59 37 4
59 38 3
59 39 4
59 40 1
59 41 4
59 42 4
59 43 3
59 44 2
59 45 4
59 46 1
59 47 2
59 48 1
59 49 2
59 50 2
59 51 4
59 52 3
59 53 2
59 54 1
59 55 1
59 56 2
59 57 4
59 58 2
60 0 1
60 1 4
60 2 1
60 3 2
60 4 3
60 5 2
60 6 3
60 7 4
60 8 4
60 9 2
60 10 3
60 11 2
60 12 1
60 13 2
60 14 2
60 15 3
60 16 1
60 17 4
60 18 4
60 19 3
60 20 1
60 21 4
60 22 1
60 23 3
60 24 3
60 25 1
60 26 1
60 27 4
60 28 3
60 29 1
60 30 3
60 31 3
60 32 2
60 33 4
60 34 2
60 35 1
60 36 4
60 37 2
60 38 4
60 39 1
60 40 2
60 41 4
60 42 2
60 43 1
60 44 3
60 45 3
60 46 3
60 47 1
60 48 3
60 49 2
60 50 3
60 51 2
60 52 2
60 53 4
60 54 4
60 55 1
60 56 1
60 57 4
60 58 1
60 59 4
61 0 3
61 1 2
61 2 1
61 3 1
61 4 2
61 5 1
61 6 3
61 7 2
61 8 3
61 9 2
61 10 2
61 11 3
61 12 2
61 13 4
61 14 2
61 15 4
61 16 1
61 17 3
61 18 3
61 19 4
61 20 3
61 21 3
61 22 4
61 23 3
61 24 2
61 25 2
61 26 1
61 27 3
61 28 1
61 29 3
61 30 3
61 31 4
61 32 2
61 33 1
61 34 4
61 35 2
61 36 3
61 37 3
61 38 4
61 39 4
61 40 2
61 41 2
61 42 2
61 43 4
61 44 3
61 45 2
61 46 4
61 47 1
61 48 2
61 49 1
61 50 1
61 51 3
61 52 4
61 53 3
61 54 1
61 55 3
61 56 4
61 57 2
61 58 1
61 59 1
61 60 4
62 0 1
62 1 3
62 2 4
62 3 2
62 4 3
62 5 1
62 6 2
62 7 3
62 8 3
62 9 2
62 10 1
62 11 4
62 12 1
62 13 3
62 14 1
62 15 4
62 16 2
62 17 3
62 18 2
62 19 1
62 20 1
62 21 3
62 22 4
62 23 2
62 24 4
62 25 1
62 26 1
62 27 4
62 28 2
62 29 2
62 30 4
62 31 3
62 32 3
62 33 2
62 34 3
62 35 1
62 36 3
62 37 3
62 38 2
62 39 1
62 40 3
62 41 1
62 42 4
62 43 4
62 44 3
62 45 3
62 46 2
62 47 4
62 48 1
62 49 4
62 50 4
62 51 1
62 52 1
62 53 1
62 54 3
62 55 1
62 56 4
62 57 3
62 58 1
62 59 2
62 60 3
62 61 1
